c generated by sgen
p cnf 129 268
-2 -3 -4 0
-1 -3 -4 0
-1 -2 -4 0
-1 -2 -3 0
-6 -7 -8 0
-5 -7 -8 0
-5 -6 -8 0
-5 -6 -7 0
-10 -11 -12 0
-9 -11 -12 0
-9 -10 -12 0
-9 -10 -11 0
-14 -15 -16 0
-13 -15 -16 0
-13 -14 -16 0
-13 -14 -15 0
-18 -19 -20 0
-17 -19 -20 0
-17 -18 -20 0
-17 -18 -19 0
-22 -23 -24 0
-21 -23 -24 0
-21 -22 -24 0
-21 -22 -23 0
-26 -27 -28 0
-25 -27 -28 0
-25 -26 -28 0
-25 -26 -27 0
-30 -31 -32 0
-29 -31 -32 0
-29 -30 -32 0
-29 -30 -31 0
-34 -35 -36 0
-33 -35 -36 0
-33 -34 -36 0
-33 -34 -35 0
-38 -39 -40 0
-37 -39 -40 0
-37 -38 -40 0
-37 -38 -39 0
-42 -43 -44 0
-41 -43 -44 0
-41 -42 -44 0
-41 -42 -43 0
-46 -47 -48 0
-45 -47 -48 0
-45 -46 -48 0
-45 -46 -47 0
-50 -51 -52 0
-49 -51 -52 0
-49 -50 -52 0
-49 -50 -51 0
-54 -55 -56 0
-53 -55 -56 0
-53 -54 -56 0
-53 -54 -55 0
-58 -59 -60 0
-57 -59 -60 0
-57 -58 -60 0
-57 -58 -59 0
-62 -63 -64 0
-61 -63 -64 0
-61 -62 -64 0
-61 -62 -63 0
-66 -67 -68 0
-65 -67 -68 0
-65 -66 -68 0
-65 -66 -67 0
-70 -71 -72 0
-69 -71 -72 0
-69 -70 -72 0
-69 -70 -71 0
-74 -75 -76 0
-73 -75 -76 0
-73 -74 -76 0
-73 -74 -75 0
-78 -79 -80 0
-77 -79 -80 0
-77 -78 -80 0
-77 -78 -79 0
-82 -83 -84 0
-81 -83 -84 0
-81 -82 -84 0
-81 -82 -83 0
-86 -87 -88 0
-85 -87 -88 0
-85 -86 -88 0
-85 -86 -87 0
-90 -91 -92 0
-89 -91 -92 0
-89 -90 -92 0
-89 -90 -91 0
-94 -95 -96 0
-93 -95 -96 0
-93 -94 -96 0
-93 -94 -95 0
-98 -99 -100 0
-97 -99 -100 0
-97 -98 -100 0
-97 -98 -99 0
-102 -103 -104 0
-101 -103 -104 0
-101 -102 -104 0
-101 -102 -103 0
-106 -107 -108 0
-105 -107 -108 0
-105 -106 -108 0
-105 -106 -107 0
-110 -111 -112 0
-109 -111 -112 0
-109 -110 -112 0
-109 -110 -111 0
-114 -115 -116 0
-113 -115 -116 0
-113 -114 -116 0
-113 -114 -115 0
-118 -119 -120 0
-117 -119 -120 0
-117 -118 -120 0
-117 -118 -119 0
-122 -123 -124 0
-121 -123 -124 0
-121 -122 -124 0
-121 -122 -123 0
-125 -126 -127 0
-125 -126 -128 0
-125 -126 -129 0
-125 -127 -128 0
-125 -127 -129 0
-125 -128 -129 0
-126 -127 -128 0
-126 -127 -129 0
-126 -128 -129 0
-127 -128 -129 0
77 53 34 0
70 53 34 0
70 77 34 0
70 77 53 0
12 128 91 0
75 128 91 0
75 12 91 0
75 12 128 0
69 18 82 0
124 18 82 0
124 69 82 0
124 69 18 0
57 104 121 0
4 104 121 0
4 57 121 0
4 57 104 0
111 95 55 0
87 95 55 0
87 111 55 0
87 111 95 0
63 24 122 0
32 24 122 0
32 63 122 0
32 63 24 0
41 60 31 0
66 60 31 0
66 41 31 0
66 41 60 0
3 83 42 0
78 83 42 0
78 3 42 0
78 3 83 0
6 51 28 0
14 51 28 0
14 6 28 0
14 6 51 0
106 26 2 0
21 26 2 0
21 106 2 0
21 106 26 0
52 71 64 0
76 71 64 0
76 52 64 0
76 52 71 0
123 115 85 0
120 115 85 0
120 123 85 0
120 123 115 0
90 13 99 0
118 13 99 0
118 90 99 0
118 90 13 0
8 74 80 0
59 74 80 0
59 8 80 0
59 8 74 0
20 110 129 0
65 110 129 0
65 20 129 0
65 20 110 0
38 86 73 0
16 86 73 0
16 38 73 0
16 38 86 0
92 5 72 0
68 5 72 0
68 92 72 0
68 92 5 0
40 29 107 0
81 29 107 0
81 40 107 0
81 40 29 0
117 127 39 0
35 127 39 0
35 117 39 0
35 117 127 0
97 84 114 0
27 84 114 0
27 97 114 0
27 97 84 0
19 79 30 0
11 79 30 0
11 19 30 0
11 19 79 0
116 49 109 0
102 49 109 0
102 116 109 0
102 116 49 0
126 48 113 0
22 48 113 0
22 126 113 0
22 126 48 0
50 108 89 0
96 108 89 0
96 50 89 0
96 50 108 0
103 37 43 0
25 37 43 0
25 103 43 0
25 103 37 0
44 100 36 0
88 100 36 0
88 44 36 0
88 44 100 0
47 105 112 0
58 105 112 0
58 47 112 0
58 47 105 0
46 7 54 0
17 7 54 0
17 46 54 0
17 46 7 0
23 33 67 0
10 33 67 0
10 23 67 0
10 23 33 0
98 61 45 0
93 61 45 0
93 98 45 0
93 98 61 0
94 1 125 0
15 1 125 0
15 94 125 0
15 94 1 0
56 9 119 0
56 9 101 0
56 9 62 0
56 119 101 0
56 119 62 0
56 101 62 0
9 119 101 0
9 119 62 0
9 101 62 0
119 101 62 0
